1554
99 92 94 25 22 10 59 49 71 38 96 33 12 77 42 65 90 21 58 1 13 6 36 88 55 29 62 8 61 11 98 68 50 83 74 69 76 85 9 24 80 23 93 72 64 67 57 35 14 52 91 84 44 63 66 86 37 34 73 47 48 4 60 15 43 26 28 70 41 78 31 5 17 39 45 97 56 2 3 79 32 81 89 95 82 19 7 30 75 27 40 18 51 16 20 53 46 54 87 
